min:1x24 1x12 1x65 1x21 5x23 5x63 5x32 5x45 1x42 1x43 1x35 5x41 5x36 1x53 5x54 1x34 1x56 5x14 ;
 -x12  x21  -x14  x41 = -10;
 -x21  x12  -x23  x32  -x24  x42 = 0;
 -x32  x23  -x34  x43  -x35  x53  -x36  x63 = 0;
 -x41  x14  -x42  x24  -x43  x34  -x45  x54 = 0;
 -x53  x35  -x54  x45  -x56  x65 = 0;
 -x63  x36  -x65  x56 = 10;

